 iprint = 3
 num_bands       =  18
 num_wann        =  18
 num_iter        = 0
 num_print_cycles =0
 
 dis_mix_ratio   = 0.5
 write_proj = .true.
 write_xyz = .true.
 translate_home_cell = .true.
 
 begin unit_cell_cart
 bohr
   7.092606 -4.094918  0.000000
   0.000000  8.189836  0.000000
   0.000000  0.000000 12.984032
 end unit_cell_cart
 
 begin atoms_frac
Bi 0.0000000000 0.0000000000 0.46322936
Te 0.3333333333 0.6666666667 0.21480074
I  0.6666666667 0.3333333333 0.76576990
 end atoms_frac
 
 begin projections
 end projections
 
 begin kpoint_path
G 0.0000000000     0.0000000000     0.0000000000  M 0.5000000000     0.0000000000     0.0000000000
M 0.5000000000     0.0000000000     0.0000000000  K 0.3333333333     0.3333333333     0.0000000000
K 0.3333333333     0.3333333333     0.0000000000  G 0.0000000000     0.0000000000     0.0000000000
G 0.0000000000     0.0000000000     0.0000000000  A 0.0000000000     0.0000000000     0.5000000000
A 0.0000000000     0.0000000000     0.5000000000  L 0.5000000000     0.0000000000     0.5000000000
L 0.5000000000     0.0000000000     0.5000000000  H 0.3333333333     0.3333333333     0.5000000000
H 0.3333333333     0.3333333333     0.5000000000  A 0.0000000000     0.0000000000     0.5000000000
 end kpoint_path

 bands_plot = .true.
 bands_num_points  = 600
 wannier_plot = .false.
 hr_plot = .true.

 mp_grid :           10          10          10
 
 begin kpoints
  0.000000000  0.000000000  0.000000000
  0.000000000  0.000000000  0.100000000
  0.000000000  0.000000000  0.200000000
  0.000000000  0.000000000  0.300000000
  0.000000000  0.000000000  0.400000000
  0.000000000  0.000000000  0.500000000
  0.000000000  0.000000000  0.600000000
  0.000000000  0.000000000  0.700000000
  0.000000000  0.000000000  0.800000000
  0.000000000  0.000000000  0.900000000
  0.000000000  0.100000000  0.000000000
  0.000000000  0.100000000  0.100000000
  0.000000000  0.100000000  0.200000000
  0.000000000  0.100000000  0.300000000
  0.000000000  0.100000000  0.400000000
  0.000000000  0.100000000  0.500000000
  0.000000000  0.100000000  0.600000000
  0.000000000  0.100000000  0.700000000
  0.000000000  0.100000000  0.800000000
  0.000000000  0.100000000  0.900000000
  0.000000000  0.200000000  0.000000000
  0.000000000  0.200000000  0.100000000
  0.000000000  0.200000000  0.200000000
  0.000000000  0.200000000  0.300000000
  0.000000000  0.200000000  0.400000000
  0.000000000  0.200000000  0.500000000
  0.000000000  0.200000000  0.600000000
  0.000000000  0.200000000  0.700000000
  0.000000000  0.200000000  0.800000000
  0.000000000  0.200000000  0.900000000
  0.000000000  0.300000000  0.000000000
  0.000000000  0.300000000  0.100000000
  0.000000000  0.300000000  0.200000000
  0.000000000  0.300000000  0.300000000
  0.000000000  0.300000000  0.400000000
  0.000000000  0.300000000  0.500000000
  0.000000000  0.300000000  0.600000000
  0.000000000  0.300000000  0.700000000
  0.000000000  0.300000000  0.800000000
  0.000000000  0.300000000  0.900000000
  0.000000000  0.400000000  0.000000000
  0.000000000  0.400000000  0.100000000
  0.000000000  0.400000000  0.200000000
  0.000000000  0.400000000  0.300000000
  0.000000000  0.400000000  0.400000000
  0.000000000  0.400000000  0.500000000
  0.000000000  0.400000000  0.600000000
  0.000000000  0.400000000  0.700000000
  0.000000000  0.400000000  0.800000000
  0.000000000  0.400000000  0.900000000
  0.000000000  0.500000000  0.000000000
  0.000000000  0.500000000  0.100000000
  0.000000000  0.500000000  0.200000000
  0.000000000  0.500000000  0.300000000
  0.000000000  0.500000000  0.400000000
  0.000000000  0.500000000  0.500000000
  0.000000000  0.500000000  0.600000000
  0.000000000  0.500000000  0.700000000
  0.000000000  0.500000000  0.800000000
  0.000000000  0.500000000  0.900000000
  0.000000000  0.600000000  0.000000000
  0.000000000  0.600000000  0.100000000
  0.000000000  0.600000000  0.200000000
  0.000000000  0.600000000  0.300000000
  0.000000000  0.600000000  0.400000000
  0.000000000  0.600000000  0.500000000
  0.000000000  0.600000000  0.600000000
  0.000000000  0.600000000  0.700000000
  0.000000000  0.600000000  0.800000000
  0.000000000  0.600000000  0.900000000
  0.000000000  0.700000000  0.000000000
  0.000000000  0.700000000  0.100000000
  0.000000000  0.700000000  0.200000000
  0.000000000  0.700000000  0.300000000
  0.000000000  0.700000000  0.400000000
  0.000000000  0.700000000  0.500000000
  0.000000000  0.700000000  0.600000000
  0.000000000  0.700000000  0.700000000
  0.000000000  0.700000000  0.800000000
  0.000000000  0.700000000  0.900000000
  0.000000000  0.800000000  0.000000000
  0.000000000  0.800000000  0.100000000
  0.000000000  0.800000000  0.200000000
  0.000000000  0.800000000  0.300000000
  0.000000000  0.800000000  0.400000000
  0.000000000  0.800000000  0.500000000
  0.000000000  0.800000000  0.600000000
  0.000000000  0.800000000  0.700000000
  0.000000000  0.800000000  0.800000000
  0.000000000  0.800000000  0.900000000
  0.000000000  0.900000000  0.000000000
  0.000000000  0.900000000  0.100000000
  0.000000000  0.900000000  0.200000000
  0.000000000  0.900000000  0.300000000
  0.000000000  0.900000000  0.400000000
  0.000000000  0.900000000  0.500000000
  0.000000000  0.900000000  0.600000000
  0.000000000  0.900000000  0.700000000
  0.000000000  0.900000000  0.800000000
  0.000000000  0.900000000  0.900000000
  0.100000000  0.000000000  0.000000000
  0.100000000  0.000000000  0.100000000
  0.100000000  0.000000000  0.200000000
  0.100000000  0.000000000  0.300000000
  0.100000000  0.000000000  0.400000000
  0.100000000  0.000000000  0.500000000
  0.100000000  0.000000000  0.600000000
  0.100000000  0.000000000  0.700000000
  0.100000000  0.000000000  0.800000000
  0.100000000  0.000000000  0.900000000
  0.100000000  0.100000000  0.000000000
  0.100000000  0.100000000  0.100000000
  0.100000000  0.100000000  0.200000000
  0.100000000  0.100000000  0.300000000
  0.100000000  0.100000000  0.400000000
  0.100000000  0.100000000  0.500000000
  0.100000000  0.100000000  0.600000000
  0.100000000  0.100000000  0.700000000
  0.100000000  0.100000000  0.800000000
  0.100000000  0.100000000  0.900000000
  0.100000000  0.200000000  0.000000000
  0.100000000  0.200000000  0.100000000
  0.100000000  0.200000000  0.200000000
  0.100000000  0.200000000  0.300000000
  0.100000000  0.200000000  0.400000000
  0.100000000  0.200000000  0.500000000
  0.100000000  0.200000000  0.600000000
  0.100000000  0.200000000  0.700000000
  0.100000000  0.200000000  0.800000000
  0.100000000  0.200000000  0.900000000
  0.100000000  0.300000000  0.000000000
  0.100000000  0.300000000  0.100000000
  0.100000000  0.300000000  0.200000000
  0.100000000  0.300000000  0.300000000
  0.100000000  0.300000000  0.400000000
  0.100000000  0.300000000  0.500000000
  0.100000000  0.300000000  0.600000000
  0.100000000  0.300000000  0.700000000
  0.100000000  0.300000000  0.800000000
  0.100000000  0.300000000  0.900000000
  0.100000000  0.400000000  0.000000000
  0.100000000  0.400000000  0.100000000
  0.100000000  0.400000000  0.200000000
  0.100000000  0.400000000  0.300000000
  0.100000000  0.400000000  0.400000000
  0.100000000  0.400000000  0.500000000
  0.100000000  0.400000000  0.600000000
  0.100000000  0.400000000  0.700000000
  0.100000000  0.400000000  0.800000000
  0.100000000  0.400000000  0.900000000
  0.100000000  0.500000000  0.000000000
  0.100000000  0.500000000  0.100000000
  0.100000000  0.500000000  0.200000000
  0.100000000  0.500000000  0.300000000
  0.100000000  0.500000000  0.400000000
  0.100000000  0.500000000  0.500000000
  0.100000000  0.500000000  0.600000000
  0.100000000  0.500000000  0.700000000
  0.100000000  0.500000000  0.800000000
  0.100000000  0.500000000  0.900000000
  0.100000000  0.600000000  0.000000000
  0.100000000  0.600000000  0.100000000
  0.100000000  0.600000000  0.200000000
  0.100000000  0.600000000  0.300000000
  0.100000000  0.600000000  0.400000000
  0.100000000  0.600000000  0.500000000
  0.100000000  0.600000000  0.600000000
  0.100000000  0.600000000  0.700000000
  0.100000000  0.600000000  0.800000000
  0.100000000  0.600000000  0.900000000
  0.100000000  0.700000000  0.000000000
  0.100000000  0.700000000  0.100000000
  0.100000000  0.700000000  0.200000000
  0.100000000  0.700000000  0.300000000
  0.100000000  0.700000000  0.400000000
  0.100000000  0.700000000  0.500000000
  0.100000000  0.700000000  0.600000000
  0.100000000  0.700000000  0.700000000
  0.100000000  0.700000000  0.800000000
  0.100000000  0.700000000  0.900000000
  0.100000000  0.800000000  0.000000000
  0.100000000  0.800000000  0.100000000
  0.100000000  0.800000000  0.200000000
  0.100000000  0.800000000  0.300000000
  0.100000000  0.800000000  0.400000000
  0.100000000  0.800000000  0.500000000
  0.100000000  0.800000000  0.600000000
  0.100000000  0.800000000  0.700000000
  0.100000000  0.800000000  0.800000000
  0.100000000  0.800000000  0.900000000
  0.100000000  0.900000000  0.000000000
  0.100000000  0.900000000  0.100000000
  0.100000000  0.900000000  0.200000000
  0.100000000  0.900000000  0.300000000
  0.100000000  0.900000000  0.400000000
  0.100000000  0.900000000  0.500000000
  0.100000000  0.900000000  0.600000000
  0.100000000  0.900000000  0.700000000
  0.100000000  0.900000000  0.800000000
  0.100000000  0.900000000  0.900000000
  0.200000000  0.000000000  0.000000000
  0.200000000  0.000000000  0.100000000
  0.200000000  0.000000000  0.200000000
  0.200000000  0.000000000  0.300000000
  0.200000000  0.000000000  0.400000000
  0.200000000  0.000000000  0.500000000
  0.200000000  0.000000000  0.600000000
  0.200000000  0.000000000  0.700000000
  0.200000000  0.000000000  0.800000000
  0.200000000  0.000000000  0.900000000
  0.200000000  0.100000000  0.000000000
  0.200000000  0.100000000  0.100000000
  0.200000000  0.100000000  0.200000000
  0.200000000  0.100000000  0.300000000
  0.200000000  0.100000000  0.400000000
  0.200000000  0.100000000  0.500000000
  0.200000000  0.100000000  0.600000000
  0.200000000  0.100000000  0.700000000
  0.200000000  0.100000000  0.800000000
  0.200000000  0.100000000  0.900000000
  0.200000000  0.200000000  0.000000000
  0.200000000  0.200000000  0.100000000
  0.200000000  0.200000000  0.200000000
  0.200000000  0.200000000  0.300000000
  0.200000000  0.200000000  0.400000000
  0.200000000  0.200000000  0.500000000
  0.200000000  0.200000000  0.600000000
  0.200000000  0.200000000  0.700000000
  0.200000000  0.200000000  0.800000000
  0.200000000  0.200000000  0.900000000
  0.200000000  0.300000000  0.000000000
  0.200000000  0.300000000  0.100000000
  0.200000000  0.300000000  0.200000000
  0.200000000  0.300000000  0.300000000
  0.200000000  0.300000000  0.400000000
  0.200000000  0.300000000  0.500000000
  0.200000000  0.300000000  0.600000000
  0.200000000  0.300000000  0.700000000
  0.200000000  0.300000000  0.800000000
  0.200000000  0.300000000  0.900000000
  0.200000000  0.400000000  0.000000000
  0.200000000  0.400000000  0.100000000
  0.200000000  0.400000000  0.200000000
  0.200000000  0.400000000  0.300000000
  0.200000000  0.400000000  0.400000000
  0.200000000  0.400000000  0.500000000
  0.200000000  0.400000000  0.600000000
  0.200000000  0.400000000  0.700000000
  0.200000000  0.400000000  0.800000000
  0.200000000  0.400000000  0.900000000
  0.200000000  0.500000000  0.000000000
  0.200000000  0.500000000  0.100000000
  0.200000000  0.500000000  0.200000000
  0.200000000  0.500000000  0.300000000
  0.200000000  0.500000000  0.400000000
  0.200000000  0.500000000  0.500000000
  0.200000000  0.500000000  0.600000000
  0.200000000  0.500000000  0.700000000
  0.200000000  0.500000000  0.800000000
  0.200000000  0.500000000  0.900000000
  0.200000000  0.600000000  0.000000000
  0.200000000  0.600000000  0.100000000
  0.200000000  0.600000000  0.200000000
  0.200000000  0.600000000  0.300000000
  0.200000000  0.600000000  0.400000000
  0.200000000  0.600000000  0.500000000
  0.200000000  0.600000000  0.600000000
  0.200000000  0.600000000  0.700000000
  0.200000000  0.600000000  0.800000000
  0.200000000  0.600000000  0.900000000
  0.200000000  0.700000000  0.000000000
  0.200000000  0.700000000  0.100000000
  0.200000000  0.700000000  0.200000000
  0.200000000  0.700000000  0.300000000
  0.200000000  0.700000000  0.400000000
  0.200000000  0.700000000  0.500000000
  0.200000000  0.700000000  0.600000000
  0.200000000  0.700000000  0.700000000
  0.200000000  0.700000000  0.800000000
  0.200000000  0.700000000  0.900000000
  0.200000000  0.800000000  0.000000000
  0.200000000  0.800000000  0.100000000
  0.200000000  0.800000000  0.200000000
  0.200000000  0.800000000  0.300000000
  0.200000000  0.800000000  0.400000000
  0.200000000  0.800000000  0.500000000
  0.200000000  0.800000000  0.600000000
  0.200000000  0.800000000  0.700000000
  0.200000000  0.800000000  0.800000000
  0.200000000  0.800000000  0.900000000
  0.200000000  0.900000000  0.000000000
  0.200000000  0.900000000  0.100000000
  0.200000000  0.900000000  0.200000000
  0.200000000  0.900000000  0.300000000
  0.200000000  0.900000000  0.400000000
  0.200000000  0.900000000  0.500000000
  0.200000000  0.900000000  0.600000000
  0.200000000  0.900000000  0.700000000
  0.200000000  0.900000000  0.800000000
  0.200000000  0.900000000  0.900000000
  0.300000000  0.000000000  0.000000000
  0.300000000  0.000000000  0.100000000
  0.300000000  0.000000000  0.200000000
  0.300000000  0.000000000  0.300000000
  0.300000000  0.000000000  0.400000000
  0.300000000  0.000000000  0.500000000
  0.300000000  0.000000000  0.600000000
  0.300000000  0.000000000  0.700000000
  0.300000000  0.000000000  0.800000000
  0.300000000  0.000000000  0.900000000
  0.300000000  0.100000000  0.000000000
  0.300000000  0.100000000  0.100000000
  0.300000000  0.100000000  0.200000000
  0.300000000  0.100000000  0.300000000
  0.300000000  0.100000000  0.400000000
  0.300000000  0.100000000  0.500000000
  0.300000000  0.100000000  0.600000000
  0.300000000  0.100000000  0.700000000
  0.300000000  0.100000000  0.800000000
  0.300000000  0.100000000  0.900000000
  0.300000000  0.200000000  0.000000000
  0.300000000  0.200000000  0.100000000
  0.300000000  0.200000000  0.200000000
  0.300000000  0.200000000  0.300000000
  0.300000000  0.200000000  0.400000000
  0.300000000  0.200000000  0.500000000
  0.300000000  0.200000000  0.600000000
  0.300000000  0.200000000  0.700000000
  0.300000000  0.200000000  0.800000000
  0.300000000  0.200000000  0.900000000
  0.300000000  0.300000000  0.000000000
  0.300000000  0.300000000  0.100000000
  0.300000000  0.300000000  0.200000000
  0.300000000  0.300000000  0.300000000
  0.300000000  0.300000000  0.400000000
  0.300000000  0.300000000  0.500000000
  0.300000000  0.300000000  0.600000000
  0.300000000  0.300000000  0.700000000
  0.300000000  0.300000000  0.800000000
  0.300000000  0.300000000  0.900000000
  0.300000000  0.400000000  0.000000000
  0.300000000  0.400000000  0.100000000
  0.300000000  0.400000000  0.200000000
  0.300000000  0.400000000  0.300000000
  0.300000000  0.400000000  0.400000000
  0.300000000  0.400000000  0.500000000
  0.300000000  0.400000000  0.600000000
  0.300000000  0.400000000  0.700000000
  0.300000000  0.400000000  0.800000000
  0.300000000  0.400000000  0.900000000
  0.300000000  0.500000000  0.000000000
  0.300000000  0.500000000  0.100000000
  0.300000000  0.500000000  0.200000000
  0.300000000  0.500000000  0.300000000
  0.300000000  0.500000000  0.400000000
  0.300000000  0.500000000  0.500000000
  0.300000000  0.500000000  0.600000000
  0.300000000  0.500000000  0.700000000
  0.300000000  0.500000000  0.800000000
  0.300000000  0.500000000  0.900000000
  0.300000000  0.600000000  0.000000000
  0.300000000  0.600000000  0.100000000
  0.300000000  0.600000000  0.200000000
  0.300000000  0.600000000  0.300000000
  0.300000000  0.600000000  0.400000000
  0.300000000  0.600000000  0.500000000
  0.300000000  0.600000000  0.600000000
  0.300000000  0.600000000  0.700000000
  0.300000000  0.600000000  0.800000000
  0.300000000  0.600000000  0.900000000
  0.300000000  0.700000000  0.000000000
  0.300000000  0.700000000  0.100000000
  0.300000000  0.700000000  0.200000000
  0.300000000  0.700000000  0.300000000
  0.300000000  0.700000000  0.400000000
  0.300000000  0.700000000  0.500000000
  0.300000000  0.700000000  0.600000000
  0.300000000  0.700000000  0.700000000
  0.300000000  0.700000000  0.800000000
  0.300000000  0.700000000  0.900000000
  0.300000000  0.800000000  0.000000000
  0.300000000  0.800000000  0.100000000
  0.300000000  0.800000000  0.200000000
  0.300000000  0.800000000  0.300000000
  0.300000000  0.800000000  0.400000000
  0.300000000  0.800000000  0.500000000
  0.300000000  0.800000000  0.600000000
  0.300000000  0.800000000  0.700000000
  0.300000000  0.800000000  0.800000000
  0.300000000  0.800000000  0.900000000
  0.300000000  0.900000000  0.000000000
  0.300000000  0.900000000  0.100000000
  0.300000000  0.900000000  0.200000000
  0.300000000  0.900000000  0.300000000
  0.300000000  0.900000000  0.400000000
  0.300000000  0.900000000  0.500000000
  0.300000000  0.900000000  0.600000000
  0.300000000  0.900000000  0.700000000
  0.300000000  0.900000000  0.800000000
  0.300000000  0.900000000  0.900000000
  0.400000000  0.000000000  0.000000000
  0.400000000  0.000000000  0.100000000
  0.400000000  0.000000000  0.200000000
  0.400000000  0.000000000  0.300000000
  0.400000000  0.000000000  0.400000000
  0.400000000  0.000000000  0.500000000
  0.400000000  0.000000000  0.600000000
  0.400000000  0.000000000  0.700000000
  0.400000000  0.000000000  0.800000000
  0.400000000  0.000000000  0.900000000
  0.400000000  0.100000000  0.000000000
  0.400000000  0.100000000  0.100000000
  0.400000000  0.100000000  0.200000000
  0.400000000  0.100000000  0.300000000
  0.400000000  0.100000000  0.400000000
  0.400000000  0.100000000  0.500000000
  0.400000000  0.100000000  0.600000000
  0.400000000  0.100000000  0.700000000
  0.400000000  0.100000000  0.800000000
  0.400000000  0.100000000  0.900000000
  0.400000000  0.200000000  0.000000000
  0.400000000  0.200000000  0.100000000
  0.400000000  0.200000000  0.200000000
  0.400000000  0.200000000  0.300000000
  0.400000000  0.200000000  0.400000000
  0.400000000  0.200000000  0.500000000
  0.400000000  0.200000000  0.600000000
  0.400000000  0.200000000  0.700000000
  0.400000000  0.200000000  0.800000000
  0.400000000  0.200000000  0.900000000
  0.400000000  0.300000000  0.000000000
  0.400000000  0.300000000  0.100000000
  0.400000000  0.300000000  0.200000000
  0.400000000  0.300000000  0.300000000
  0.400000000  0.300000000  0.400000000
  0.400000000  0.300000000  0.500000000
  0.400000000  0.300000000  0.600000000
  0.400000000  0.300000000  0.700000000
  0.400000000  0.300000000  0.800000000
  0.400000000  0.300000000  0.900000000
  0.400000000  0.400000000  0.000000000
  0.400000000  0.400000000  0.100000000
  0.400000000  0.400000000  0.200000000
  0.400000000  0.400000000  0.300000000
  0.400000000  0.400000000  0.400000000
  0.400000000  0.400000000  0.500000000
  0.400000000  0.400000000  0.600000000
  0.400000000  0.400000000  0.700000000
  0.400000000  0.400000000  0.800000000
  0.400000000  0.400000000  0.900000000
  0.400000000  0.500000000  0.000000000
  0.400000000  0.500000000  0.100000000
  0.400000000  0.500000000  0.200000000
  0.400000000  0.500000000  0.300000000
  0.400000000  0.500000000  0.400000000
  0.400000000  0.500000000  0.500000000
  0.400000000  0.500000000  0.600000000
  0.400000000  0.500000000  0.700000000
  0.400000000  0.500000000  0.800000000
  0.400000000  0.500000000  0.900000000
  0.400000000  0.600000000  0.000000000
  0.400000000  0.600000000  0.100000000
  0.400000000  0.600000000  0.200000000
  0.400000000  0.600000000  0.300000000
  0.400000000  0.600000000  0.400000000
  0.400000000  0.600000000  0.500000000
  0.400000000  0.600000000  0.600000000
  0.400000000  0.600000000  0.700000000
  0.400000000  0.600000000  0.800000000
  0.400000000  0.600000000  0.900000000
  0.400000000  0.700000000  0.000000000
  0.400000000  0.700000000  0.100000000
  0.400000000  0.700000000  0.200000000
  0.400000000  0.700000000  0.300000000
  0.400000000  0.700000000  0.400000000
  0.400000000  0.700000000  0.500000000
  0.400000000  0.700000000  0.600000000
  0.400000000  0.700000000  0.700000000
  0.400000000  0.700000000  0.800000000
  0.400000000  0.700000000  0.900000000
  0.400000000  0.800000000  0.000000000
  0.400000000  0.800000000  0.100000000
  0.400000000  0.800000000  0.200000000
  0.400000000  0.800000000  0.300000000
  0.400000000  0.800000000  0.400000000
  0.400000000  0.800000000  0.500000000
  0.400000000  0.800000000  0.600000000
  0.400000000  0.800000000  0.700000000
  0.400000000  0.800000000  0.800000000
  0.400000000  0.800000000  0.900000000
  0.400000000  0.900000000  0.000000000
  0.400000000  0.900000000  0.100000000
  0.400000000  0.900000000  0.200000000
  0.400000000  0.900000000  0.300000000
  0.400000000  0.900000000  0.400000000
  0.400000000  0.900000000  0.500000000
  0.400000000  0.900000000  0.600000000
  0.400000000  0.900000000  0.700000000
  0.400000000  0.900000000  0.800000000
  0.400000000  0.900000000  0.900000000
  0.500000000  0.000000000  0.000000000
  0.500000000  0.000000000  0.100000000
  0.500000000  0.000000000  0.200000000
  0.500000000  0.000000000  0.300000000
  0.500000000  0.000000000  0.400000000
  0.500000000  0.000000000  0.500000000
  0.500000000  0.000000000  0.600000000
  0.500000000  0.000000000  0.700000000
  0.500000000  0.000000000  0.800000000
  0.500000000  0.000000000  0.900000000
  0.500000000  0.100000000  0.000000000
  0.500000000  0.100000000  0.100000000
  0.500000000  0.100000000  0.200000000
  0.500000000  0.100000000  0.300000000
  0.500000000  0.100000000  0.400000000
  0.500000000  0.100000000  0.500000000
  0.500000000  0.100000000  0.600000000
  0.500000000  0.100000000  0.700000000
  0.500000000  0.100000000  0.800000000
  0.500000000  0.100000000  0.900000000
  0.500000000  0.200000000  0.000000000
  0.500000000  0.200000000  0.100000000
  0.500000000  0.200000000  0.200000000
  0.500000000  0.200000000  0.300000000
  0.500000000  0.200000000  0.400000000
  0.500000000  0.200000000  0.500000000
  0.500000000  0.200000000  0.600000000
  0.500000000  0.200000000  0.700000000
  0.500000000  0.200000000  0.800000000
  0.500000000  0.200000000  0.900000000
  0.500000000  0.300000000  0.000000000
  0.500000000  0.300000000  0.100000000
  0.500000000  0.300000000  0.200000000
  0.500000000  0.300000000  0.300000000
  0.500000000  0.300000000  0.400000000
  0.500000000  0.300000000  0.500000000
  0.500000000  0.300000000  0.600000000
  0.500000000  0.300000000  0.700000000
  0.500000000  0.300000000  0.800000000
  0.500000000  0.300000000  0.900000000
  0.500000000  0.400000000  0.000000000
  0.500000000  0.400000000  0.100000000
  0.500000000  0.400000000  0.200000000
  0.500000000  0.400000000  0.300000000
  0.500000000  0.400000000  0.400000000
  0.500000000  0.400000000  0.500000000
  0.500000000  0.400000000  0.600000000
  0.500000000  0.400000000  0.700000000
  0.500000000  0.400000000  0.800000000
  0.500000000  0.400000000  0.900000000
  0.500000000  0.500000000  0.000000000
  0.500000000  0.500000000  0.100000000
  0.500000000  0.500000000  0.200000000
  0.500000000  0.500000000  0.300000000
  0.500000000  0.500000000  0.400000000
  0.500000000  0.500000000  0.500000000
  0.500000000  0.500000000  0.600000000
  0.500000000  0.500000000  0.700000000
  0.500000000  0.500000000  0.800000000
  0.500000000  0.500000000  0.900000000
  0.500000000  0.600000000  0.000000000
  0.500000000  0.600000000  0.100000000
  0.500000000  0.600000000  0.200000000
  0.500000000  0.600000000  0.300000000
  0.500000000  0.600000000  0.400000000
  0.500000000  0.600000000  0.500000000
  0.500000000  0.600000000  0.600000000
  0.500000000  0.600000000  0.700000000
  0.500000000  0.600000000  0.800000000
  0.500000000  0.600000000  0.900000000
  0.500000000  0.700000000  0.000000000
  0.500000000  0.700000000  0.100000000
  0.500000000  0.700000000  0.200000000
  0.500000000  0.700000000  0.300000000
  0.500000000  0.700000000  0.400000000
  0.500000000  0.700000000  0.500000000
  0.500000000  0.700000000  0.600000000
  0.500000000  0.700000000  0.700000000
  0.500000000  0.700000000  0.800000000
  0.500000000  0.700000000  0.900000000
  0.500000000  0.800000000  0.000000000
  0.500000000  0.800000000  0.100000000
  0.500000000  0.800000000  0.200000000
  0.500000000  0.800000000  0.300000000
  0.500000000  0.800000000  0.400000000
  0.500000000  0.800000000  0.500000000
  0.500000000  0.800000000  0.600000000
  0.500000000  0.800000000  0.700000000
  0.500000000  0.800000000  0.800000000
  0.500000000  0.800000000  0.900000000
  0.500000000  0.900000000  0.000000000
  0.500000000  0.900000000  0.100000000
  0.500000000  0.900000000  0.200000000
  0.500000000  0.900000000  0.300000000
  0.500000000  0.900000000  0.400000000
  0.500000000  0.900000000  0.500000000
  0.500000000  0.900000000  0.600000000
  0.500000000  0.900000000  0.700000000
  0.500000000  0.900000000  0.800000000
  0.500000000  0.900000000  0.900000000
  0.600000000  0.000000000  0.000000000
  0.600000000  0.000000000  0.100000000
  0.600000000  0.000000000  0.200000000
  0.600000000  0.000000000  0.300000000
  0.600000000  0.000000000  0.400000000
  0.600000000  0.000000000  0.500000000
  0.600000000  0.000000000  0.600000000
  0.600000000  0.000000000  0.700000000
  0.600000000  0.000000000  0.800000000
  0.600000000  0.000000000  0.900000000
  0.600000000  0.100000000  0.000000000
  0.600000000  0.100000000  0.100000000
  0.600000000  0.100000000  0.200000000
  0.600000000  0.100000000  0.300000000
  0.600000000  0.100000000  0.400000000
  0.600000000  0.100000000  0.500000000
  0.600000000  0.100000000  0.600000000
  0.600000000  0.100000000  0.700000000
  0.600000000  0.100000000  0.800000000
  0.600000000  0.100000000  0.900000000
  0.600000000  0.200000000  0.000000000
  0.600000000  0.200000000  0.100000000
  0.600000000  0.200000000  0.200000000
  0.600000000  0.200000000  0.300000000
  0.600000000  0.200000000  0.400000000
  0.600000000  0.200000000  0.500000000
  0.600000000  0.200000000  0.600000000
  0.600000000  0.200000000  0.700000000
  0.600000000  0.200000000  0.800000000
  0.600000000  0.200000000  0.900000000
  0.600000000  0.300000000  0.000000000
  0.600000000  0.300000000  0.100000000
  0.600000000  0.300000000  0.200000000
  0.600000000  0.300000000  0.300000000
  0.600000000  0.300000000  0.400000000
  0.600000000  0.300000000  0.500000000
  0.600000000  0.300000000  0.600000000
  0.600000000  0.300000000  0.700000000
  0.600000000  0.300000000  0.800000000
  0.600000000  0.300000000  0.900000000
  0.600000000  0.400000000  0.000000000
  0.600000000  0.400000000  0.100000000
  0.600000000  0.400000000  0.200000000
  0.600000000  0.400000000  0.300000000
  0.600000000  0.400000000  0.400000000
  0.600000000  0.400000000  0.500000000
  0.600000000  0.400000000  0.600000000
  0.600000000  0.400000000  0.700000000
  0.600000000  0.400000000  0.800000000
  0.600000000  0.400000000  0.900000000
  0.600000000  0.500000000  0.000000000
  0.600000000  0.500000000  0.100000000
  0.600000000  0.500000000  0.200000000
  0.600000000  0.500000000  0.300000000
  0.600000000  0.500000000  0.400000000
  0.600000000  0.500000000  0.500000000
  0.600000000  0.500000000  0.600000000
  0.600000000  0.500000000  0.700000000
  0.600000000  0.500000000  0.800000000
  0.600000000  0.500000000  0.900000000
  0.600000000  0.600000000  0.000000000
  0.600000000  0.600000000  0.100000000
  0.600000000  0.600000000  0.200000000
  0.600000000  0.600000000  0.300000000
  0.600000000  0.600000000  0.400000000
  0.600000000  0.600000000  0.500000000
  0.600000000  0.600000000  0.600000000
  0.600000000  0.600000000  0.700000000
  0.600000000  0.600000000  0.800000000
  0.600000000  0.600000000  0.900000000
  0.600000000  0.700000000  0.000000000
  0.600000000  0.700000000  0.100000000
  0.600000000  0.700000000  0.200000000
  0.600000000  0.700000000  0.300000000
  0.600000000  0.700000000  0.400000000
  0.600000000  0.700000000  0.500000000
  0.600000000  0.700000000  0.600000000
  0.600000000  0.700000000  0.700000000
  0.600000000  0.700000000  0.800000000
  0.600000000  0.700000000  0.900000000
  0.600000000  0.800000000  0.000000000
  0.600000000  0.800000000  0.100000000
  0.600000000  0.800000000  0.200000000
  0.600000000  0.800000000  0.300000000
  0.600000000  0.800000000  0.400000000
  0.600000000  0.800000000  0.500000000
  0.600000000  0.800000000  0.600000000
  0.600000000  0.800000000  0.700000000
  0.600000000  0.800000000  0.800000000
  0.600000000  0.800000000  0.900000000
  0.600000000  0.900000000  0.000000000
  0.600000000  0.900000000  0.100000000
  0.600000000  0.900000000  0.200000000
  0.600000000  0.900000000  0.300000000
  0.600000000  0.900000000  0.400000000
  0.600000000  0.900000000  0.500000000
  0.600000000  0.900000000  0.600000000
  0.600000000  0.900000000  0.700000000
  0.600000000  0.900000000  0.800000000
  0.600000000  0.900000000  0.900000000
  0.700000000  0.000000000  0.000000000
  0.700000000  0.000000000  0.100000000
  0.700000000  0.000000000  0.200000000
  0.700000000  0.000000000  0.300000000
  0.700000000  0.000000000  0.400000000
  0.700000000  0.000000000  0.500000000
  0.700000000  0.000000000  0.600000000
  0.700000000  0.000000000  0.700000000
  0.700000000  0.000000000  0.800000000
  0.700000000  0.000000000  0.900000000
  0.700000000  0.100000000  0.000000000
  0.700000000  0.100000000  0.100000000
  0.700000000  0.100000000  0.200000000
  0.700000000  0.100000000  0.300000000